GeneratedTests/Random_6/Random_6_5.tsp
NAME: Random_6_5
TYPE: TSP
DIMENSION: 6
EDGE_WEIGHT_TYPE: EUC_2D
NODE_COORD_SECTION
1 4.061922 2.6012986
2 16.469294 17.133541
3 5.7124443 4.3234444
4 1.5140287 7.3340554
5 6.9132853 7.7736177
6 9.383258 8.599592
EOF
