GeneratedTests/Random_6/Random_6_5.txt
NAME: Random_6_5
TYPE: TSP
DIMENSION: 6
EDGE_WEIGHT_TYPE: EUC_2D
NODE_COORD_SECTION
1 1.3950276 10.896752
2 13.53815 17.578339
3 17.96869 16.92606
4 17.704124 1.5392253
5 6.681694 16.173847
6 0.4764161 5.1808157
EOF
